c description: Random 5-CNF over 15 variables and 30 clauses
c generator: CNFgen (0.9.0)
c copyright: (C) 2012-2020 Massimo Lauria <massimo.lauria@uniroma1.it>
c url: https://massimolauria.net/cnfgen
c
p cnf 15 30
-1 3 7 -8 11 0
-2 -5 8 13 15 0
-6 -7 11 -12 15 0
-1 -2 -4 -5 -6 0
-4 8 10 11 -15 0
2 -7 -9 10 15 0
2 4 8 9 13 0
-3 5 -6 -12 15 0
-3 -4 -7 -10 15 0
-1 6 8 11 -13 0
-1 2 5 7 -14 0
-5 -9 10 11 -14 0
-1 -4 -5 9 15 0
-5 7 9 13 -14 0
1 2 3 -6 12 0
2 -4 6 -9 -12 0
-1 -4 6 11 12 0
3 -6 -9 -10 12 0
-1 -2 -6 12 -14 0
2 3 5 -6 -10 0
-2 4 11 -12 -15 0
-4 -9 11 12 14 0
1 -2 -7 -9 13 0
1 5 -9 11 -14 0
-4 5 7 9 -15 0
-1 -6 8 10 13 0
-1 -2 -3 10 -12 0
7 -8 13 -14 -15 0
-3 -4 -5 -13 15 0
3 -4 9 13 15 0